RandInst10
10000
50
681 22
599 22
1088 26
1360 5
1114 14
2415 31
594 25
1028 12
515 7
1619 14
2078 44
1451 18
1913 19
842 1
1602 1
1699 41
2359 47
2312 23
637 49
1802 19
1913 13
2226 48
2296 27
623 46
1013 46
504 15
1272 1
2351 43
2445 33
1672 29
2099 20
2387 8
1282 33
1518 38
1541 12
2171 47
1592 7
1132 11
821 6
756 21
2055 16
1424 45
829 19
2125 37
1025 31
934 37
1223 37
1194 17
1189 26
2482 6
